&CONTROL
   calculation      = 'scf'
   verbosity        = 'high'
   prefix           = 'mos2_PBESOL'
   pseudo_dir       = '/users/sol/abuccheri/rutgers_pseudos/pbesol'
/
&SYSTEM
   ecutwfc          = 120.0
   ntyp             = 2
   nat              = 6
   ibrav            = 0
/
&ELECTRONS
   conv_thr         = 1e-06
/
&IONS
/
&CELL
/

ATOMIC_SPECIES
Mo 95.95 mo_pbesol_v1.uspp.F.UPF
S 32.06 s_pbesol_v1.4.uspp.F.UPF

K_POINTS automatic
12 12 4  0 0 0

CELL_PARAMETERS angstrom
-1.60317385320287 -2.77677856711334 -0.00000000000000 
-1.60317385320287 2.77677856711334 0.00000000000000 
0.00000000000000 0.00000000000000 -14.95377411990975 

ATOMIC_POSITIONS angstrom
Mo -1.60317385320287 -0.92559285570445 -11.21533058993231 
Mo -1.60317385320287 0.92559285570445 -3.73844352997744 
S -1.60317385320287 0.92559285570445 -9.64258235064493 
S -1.60317385320287 -0.92559285570445 -2.16569529069005 
S -1.60317385320287 0.92559285570445 -12.78807882921970 
S -1.60317385320287 -0.92559285570445 -5.31119176926483 
