&CONTROL
   calculation      = 'scf'
   verbosity        = 'high'
   prefix           = 'wo3_monoclinic_PBESOL'
   pseudo_dir       = '/users/sol/abuccheri/rutgers_pseudos/pbesol'
/
&SYSTEM
   ecutwfc          = 120.0
   ntyp             = 2
   nat              = 16
   ibrav            = 0
/
&ELECTRONS
   conv_thr         = 1e-06
/
&IONS
/
&CELL
/

ATOMIC_SPECIES
W 183.84 w_pbesol_v1.2.uspp.F.UPF
O 15.999 o_pbesol_v1.2.uspp.F.UPF

K_POINTS automatic
10 10 10  0 0 0

CELL_PARAMETERS angstrom
0.00000000000000 -5.28654951338371 -0.00000000000000 
-5.34093611420449 0.00000000000000 0.08522794633392 
0.00000000000000 0.00000000000000 -7.62053746221074 

ATOMIC_POSITIONS angstrom
W -1.34157906065480 -3.99668958416274 -5.84402038029287 
W -3.99935705354969 -1.35341482747088 -5.50155786668932 
W -3.99935705354969 -1.28985992922098 -1.69128913558395 
W -1.34157906065480 -3.93313468591284 -2.03375164918750 
O -2.82980954513342 -2.79197482140431 -2.06292023499093 
O -4.00268445674884 -1.03900258171189 -3.71246167182539 
O -2.51112656907107 -2.49457469197940 -5.47238928088589 
O -5.19709402277674 -2.79297397926234 -5.42891071268423 
O -4.00268445674884 -1.60427217497996 -7.52273040293076 
O -0.14384209142775 -2.49357553412137 -2.10639880319259 
O -2.82980954513342 -5.13784944867126 -5.87318896609631 
O -0.14384209142775 -0.14969922257049 -5.91666753429796 
O -5.19709402277674 -5.13685029081323 -1.61864198157886 
O -2.51112656907107 -0.14870006471246 -1.66212054978052 
O -1.33825165745565 -4.24754693167182 -3.82284784405144 
O -1.33825165745565 -3.68227733840375 -0.01257911294607 
