&CONTROL
   calculation      = 'scf'
   verbosity        = 'high'
   prefix           = 'germanium_PBESOL'
   pseudo_dir       = '/users/sol/abuccheri/rutgers_pseudos/pbesol'
/
&SYSTEM
   ecutwfc          = 120.0
   ntyp             = 1
   nat              = 2
   ibrav            = 0
/
&ELECTRONS
   conv_thr         = 1e-06
/
&IONS
/
&CELL
/

ATOMIC_SPECIES
Ge 72.63 ge_pbesol_v1.4.uspp.F.UPF

K_POINTS automatic
14 14 14  0 0 0

CELL_PARAMETERS angstrom
0.00000000000000 2.90106137100275 2.90106137100275 
2.90106137100275 0.00000000000000 2.90106137100275 
2.90106137100275 2.90106137100275 0.00000000000000 

ATOMIC_POSITIONS angstrom
Ge 0.00000000000000 0.00000000000000 0.00000000000000 
Ge 1.45053068550138 1.45053068550138 1.45053068550138 
