&CONTROL
   calculation      = 'scf'
   verbosity        = 'high'
   prefix           = 'wo3_monoclinic_PBESOL'
   pseudo_dir       = '/users/sol/abuccheri/rutgers_pseudos/pbesol'
/
&SYSTEM
   ecutwfc          = 120.0
   ntyp             = 2
   nat              = 16
   ibrav            = 0
/
&ELECTRONS
   conv_thr         = 1e-06
/
&IONS
/
&CELL
/

ATOMIC_SPECIES
W 183.84 w_pbesol_v1.2.uspp.F.UPF
O 15.999 o_pbesol_v1.2.uspp.F.UPF

K_POINTS automatic
10 10 10  0 0 0

CELL_PARAMETERS angstrom
-0.00000000000000 -5.35897700000000 -0.00000000000000
-5.41410871534076 0.00000000000000 0.08639559754513
0.00000000000000 0.00000000000000 -7.72494136000000

ATOMIC_POSITIONS angstrom
W -1.3599591400 -4.0514455607 -5.9240854032 
W -4.0541495754 -1.3719570607 -5.5769310393 
W -4.0541495754 -1.3075314393 -1.7144603593 
W -1.3599591400 -3.9870199393 -2.0616147232 
O -2.8685788771 -2.8302258051 -2.0911829283 
O -4.0575225651 -1.0532372626 -3.7633236315 
O -2.5455298383 -2.5287511949 -5.5473628341 
O -5.2682959394 -2.8312386517 -5.5032885951 
O -4.0575225651 -1.6262512374 -7.6257943115 
O -0.1458127759 -2.5277383483 -2.1352571674 
O -2.8685788771 -5.2082396949 -5.9536536083 
O -0.1458127759 -0.1517501517 -5.9977278474 
O -5.2682959394 -5.2072268483 -1.6408179151 
O -2.5455298383 -0.1507373051 -1.6848921541 
O -1.3565861503 -4.3057397374 -3.8752221310 
O -1.3565861503 -3.7327257626 -0.0127514510 

