&CONTROL
   calculation      = 'scf'
   verbosity        = 'high'
   prefix           = 'nacl_PBESOL'
   pseudo_dir       = '/users/sol/abuccheri/rutgers_pseudos/pbesol'
/
&SYSTEM
   ecutwfc          = 120.0
   ntyp             = 2
   nat              = 2
   ibrav            = 0
/
&ELECTRONS
   conv_thr         = 1e-06
/
&IONS
/
&CELL
/

ATOMIC_SPECIES
Na 22.98976928 na_pbesol_v1.5.uspp.F.UPF
Cl 35.45 cl_pbesol_v1.4.uspp.F.UPF

K_POINTS automatic
8 8 8  0 0 0

CELL_PARAMETERS angstrom
1.16181208496101 3.28610081496165 2.01231756000000
1.16181208496101 3.28610081496165 -2.01231756000000
-2.32362416992202 3.28610081496165 -0.00000000000000

ATOMIC_POSITIONS angstrom
Na 0.0000000000 0.0000000000 0.0000000000 
Cl 0.0000000000 4.9291512224 0.0000000000 

