&CONTROL
   calculation      = 'scf'
   verbosity        = 'high'
   prefix           = 'cdse_PBESOL'
   pseudo_dir       = '/users/sol/abuccheri/rutgers_pseudos/pbesol'
/
&SYSTEM
   ecutwfc          = 120.0
   ntyp             = 2
   nat              = 4
   ibrav            = 0
/
&ELECTRONS
   conv_thr         = 1e-06
/
&IONS
/
&CELL
/

ATOMIC_SPECIES
Cd 112.414 cd_pbesol_v1.uspp.F.UPF
Se 78.971 se_pbesol_v1.uspp.F.UPF

K_POINTS automatic
14 14 10  0 0 0

CELL_PARAMETERS angstrom
-2.19697533000000 -3.80527289453540 -0.00000000000000
-2.19697533000000 3.80527289453540 0.00000000000000
0.00000000000000 0.00000000000000 -7.17057826000000

ATOMIC_POSITIONS angstrom
Cd -2.1969753300 1.2684242982 -3.5855114179 
Cd -2.1969753300 -1.2684242982 -0.0002222879 
Se -2.1969753300 1.2684242982 -0.8899332973 
Se -2.1969753300 -1.2684242982 -4.4752224273 

