&CONTROL
   calculation      = 'scf'
   verbosity        = 'high'
   prefix           = 'ws2_PBESOL'
   pseudo_dir       = '/users/sol/abuccheri/rutgers_pseudos/pbesol'
/
&SYSTEM
   ecutwfc          = 120.0
   ntyp             = 2
   nat              = 6
   ibrav            = 0
/
&ELECTRONS
   conv_thr         = 1e-06
/
&IONS
/
&CELL
/

ATOMIC_SPECIES
W 183.84 w_pbesol_v1.2.uspp.F.UPF
S 32.06 s_pbesol_v1.4.uspp.F.UPF

K_POINTS automatic
14 14 6  0 0 0

CELL_PARAMETERS angstrom
-1.59536516500000 -2.76325352240551 -0.00000000000000
-1.59536516500000 2.76325352240551 0.00000000000000
0.00000000000000 0.00000000000000 -14.20240200000000

ATOMIC_POSITIONS angstrom
W -1.5953651650 0.9210845075 -3.5506005000 
W -1.5953651650 -0.9210845075 -10.6518015000 
S -1.5953651650 0.9210845075 -12.2248453431 
S -1.5953651650 -0.9210845075 -5.1236443431 
S -1.5953651650 0.9210845075 -9.0787576569 
S -1.5953651650 -0.9210845075 -1.9775566569 

