&CONTROL
   calculation      = 'scf'
   verbosity        = 'high'
   prefix           = 'mgo_PBESOL'
   pseudo_dir       = '/users/sol/abuccheri/rutgers_pseudos/pbesol'
/
&SYSTEM
   ecutwfc          = 120.0
   ntyp             = 2
   nat              = 2
   ibrav            = 0
/
&ELECTRONS
   conv_thr         = 1e-06
/
&IONS
/
&CELL
/

ATOMIC_SPECIES
Mg 24.305 mg_pbesol_v1.4.uspp.F.UPF
O 15.999 o_pbesol_v1.2.uspp.F.UPF

K_POINTS automatic
10 10 10  0 0 0

CELL_PARAMETERS angstrom
0.86885115807445 2.45748218286491 1.50489435000000
0.86885115807445 2.45748218286491 -1.50489435000000
-1.73770231614889 2.45748218286491 -0.00000000000000

ATOMIC_POSITIONS angstrom
Mg 0.0000000000 0.0000000000 0.0000000000 
O 0.0000000000 3.6862232743 0.0000000000 

