&CONTROL
   calculation      = 'scf'
   verbosity        = 'high'
   prefix           = 'gaas_PBESOL'
   pseudo_dir       = '/users/sol/abuccheri/rutgers_pseudos/pbesol'
/
&SYSTEM
   ecutwfc          = 120.0
   ntyp             = 2
   nat              = 2
   ibrav            = 0
/
&ELECTRONS
   conv_thr         = 1e-06
/
&IONS
/
&CELL
/

ATOMIC_SPECIES
Ga 69.723 ga_pbesol_v1.4.uspp.F.UPF
As 74.921595 as_pbesol_v1.uspp.F.UPF

K_POINTS automatic
12 12 12  0 0 0

CELL_PARAMETERS angstrom
1.17375098704728 3.31986912946213 2.03299634500000
1.17375098704728 3.31986912946213 -2.03299634500000
-2.34750197409455 3.31986912946213 -0.00000000000000

ATOMIC_POSITIONS angstrom
Ga 0.0000000000 0.0000000000 0.0000000000 
As 0.0000000000 7.4697055413 0.0000000000 

