&CONTROL
   calculation      = 'scf'
   verbosity        = 'high'
   prefix           = 'graphite_PBESOL'
   pseudo_dir       = '/users/sol/abuccheri/rutgers_pseudos/pbesol'
/
&SYSTEM
   ecutwfc          = 120.0
   ntyp             = 1
   nat              = 4
   ibrav            = 0
/
&ELECTRONS
   conv_thr         = 1e-06
/
&IONS
/
&CELL
/

ATOMIC_SPECIES
C 12.011 c_pbesol_v1.2.uspp.F.UPF

K_POINTS automatic
22 22 10  0 0 0

CELL_PARAMETERS angstrom
-1.23386207000000 -2.13711179477211 -0.00000000000000
-1.23386207000000 2.13711179477211 0.00000000000000
0.00000000000000 0.00000000000000 -8.68503800000000

ATOMIC_POSITIONS angstrom
C 0.0000000000 0.0000000000 -6.5137785000 
C 0.0000000000 0.0000000000 -2.1712595000 
C -1.2338620700 0.7123705983 -6.5137785000 
C -1.2338620700 -0.7123705983 -2.1712595000 

