&CONTROL
   calculation      = 'scf'
   verbosity        = 'high'
   prefix           = 'gan_PBESOL'
   pseudo_dir       = '/users/sol/abuccheri/rutgers_pseudos/pbesol'
/
&SYSTEM
   ecutwfc          = 120.0
   ntyp             = 2
   nat              = 2
   ibrav            = 0
/
&ELECTRONS
   conv_thr         = 1e-06
/
&IONS
/
&CELL
/

ATOMIC_SPECIES
Ga 69.723 ga_pbesol_v1.4.uspp.F.UPF
N 14.007 n_pbesol_v1.2.uspp.F.UPF

K_POINTS automatic
8 8 8  0 0 0

CELL_PARAMETERS angstrom
0.92786181443242 2.62438952395688 1.60710380500000
0.92786181443242 2.62438952395688 -1.60710380500000
-1.85572362886484 2.62438952395688 -0.00000000000000

ATOMIC_POSITIONS angstrom
Ga 0.0000000000 0.0000000000 0.0000000000 
N -0.0000000000 1.9682921430 0.0000000000 

