&CONTROL
   calculation      = 'scf'
   verbosity        = 'high'
   prefix           = 'bn_hex_PBESOL'
   pseudo_dir       = '/users/sol/abuccheri/rutgers_pseudos/pbesol'
/
&SYSTEM
   ecutwfc          = 120.0
   ntyp             = 2
   nat              = 4
   ibrav            = 0
/
&ELECTRONS
   conv_thr         = 1e-06
/
&IONS
/
&CELL
/

ATOMIC_SPECIES
B 10.81 b_pbesol_v1.4.uspp.F.UPF
N 14.007 n_pbesol_v1.2.uspp.F.UPF

K_POINTS automatic
14 14 8  0 0 0

CELL_PARAMETERS angstrom
1.25621402000000 -2.17582650782035 0.00000000000000
1.25621402000000 2.17582650782035 0.00000000000000
0.00000000000000 0.00000000000000 7.70726501000000

ATOMIC_POSITIONS angstrom
B 1.2562140200 0.7252755026 1.9268162525 
B 1.1515295183 -0.9065943783 5.7804487575 
N 1.2562140200 0.7252755026 5.7804487575 
N 1.2562140200 -0.7252755026 1.9268162525 

