&CONTROL
   calculation      = 'scf'
   verbosity        = 'high'
   prefix           = 'tio2_rutile_PBESOL'
   pseudo_dir       = '/users/sol/abuccheri/rutgers_pseudos/pbesol'
/
&SYSTEM
   ecutwfc          = 120.0
   ntyp             = 2
   nat              = 6
   ibrav            = 0
/
&ELECTRONS
   conv_thr         = 1e-06
/
&IONS
/
&CELL
/

ATOMIC_SPECIES
Ti 47.867 ti_pbesol_v1.4.uspp.F.UPF
O 15.999 o_pbesol_v1.2.uspp.F.UPF

K_POINTS automatic
14 14 22  0 0 0

CELL_PARAMETERS angstrom
4.58967419136607 0.00000000000000 0.00000000000000 
0.00000000000000 4.58967419136607 0.00000000000000 
0.00000000000000 0.00000000000000 2.98047870775609 

ATOMIC_POSITIONS angstrom
Ti 0.00000000000000 0.00000000000000 0.00000000000000 
Ti 2.29483709568304 2.29483709568304 1.49023935387804 
O 3.19223773162408 3.19223773162408 0.00000000000000 
O 1.39743645974199 1.39743645974199 0.00000000000000 
O 0.89740063594104 3.69227355542503 1.49023935387804 
O 3.69227355542503 0.89740063594104 1.49023935387804 
