&CONTROL
   calculation      = 'scf'
   verbosity        = 'high'
   prefix           = 'cdse_PBESOL'
   pseudo_dir       = '/users/sol/abuccheri/rutgers_pseudos/pbesol'
/
&SYSTEM
   ecutwfc          = 120.0
   ntyp             = 2
   nat              = 4
   ibrav            = 0
/
&ELECTRONS
   conv_thr         = 1e-06
/
&IONS
/
&CELL
/

ATOMIC_SPECIES
Cd 112.414 cd_pbesol_v1.uspp.F.UPF
Se 78.971 se_pbesol_v1.uspp.F.UPF

K_POINTS automatic
14 14 10  0 0 0

CELL_PARAMETERS angstrom
-2.19029755224276 -3.79370664417820 -0.00000000000000 
-2.19029755224275 3.79370664417820 0.00000000000000 
0.00000000000000 0.00000000000000 -7.14878305485711 

ATOMIC_POSITIONS angstrom
Cd -2.19029755224275 1.26456888139273 -3.57461313970326 
Cd -2.19029755224276 -1.26456888139273 -0.00022161227470 
Se -2.19029755224275 1.26456888139273 -0.88722831615526 
Se -2.19029755224276 -1.26456888139273 -4.46161984358382 
