&CONTROL
   calculation      = 'scf'
   verbosity        = 'high'
   prefix           = 'ws2_PBESOL'
   pseudo_dir       = '/users/sol/abuccheri/rutgers_pseudos/pbesol'
/
&SYSTEM
   ecutwfc          = 120.0
   ntyp             = 2
   nat              = 6
   ibrav            = 0
/
&ELECTRONS
   conv_thr         = 1e-06
/
&IONS
/
&CELL
/

ATOMIC_SPECIES
W 183.84 w_pbesol_v1.2.uspp.F.UPF
S 32.06 s_pbesol_v1.4.uspp.F.UPF

K_POINTS automatic
14 14 6  0 0 0

CELL_PARAMETERS angstrom
-1.58618067167689 -2.74734551332811 -0.00000000000000 
-1.58618067167689 2.74734551332811 0.00000000000000 
0.00000000000000 0.00000000000000 -14.12063898473378 

ATOMIC_POSITIONS angstrom
W -1.58618067167689 0.91578183777604 -3.53015974618344 
W -1.58618067167689 -0.91578183777604 -10.59047923855033 
S -1.58618067167689 0.91578183777604 -12.15446709186046 
S -1.58618067167689 -0.91578183777604 -5.09414759949357 
S -1.58618067167689 0.91578183777604 -9.02649138524020 
S -1.58618067167689 -0.91578183777604 -1.96617189287332 
