&CONTROL
   calculation      = 'scf'
   verbosity        = 'high'
   prefix           = 'silicon_PBESOL'
   pseudo_dir       = '/users/sol/abuccheri/rutgers_pseudos/pbesol'
/
&SYSTEM
   ecutwfc          = 120.0
   ntyp             = 1
   nat              = 2
   ibrav            = 0
/
&ELECTRONS
   conv_thr         = 1e-06
/
&IONS
/
&CELL
/

ATOMIC_SPECIES
Si 28.085 si_pbesol_v1.uspp.F.UPF

K_POINTS automatic
12 12 12  0 0 0

CELL_PARAMETERS angstrom
0.00000000000000 2.80040791087977 2.80040791087977 
2.80040791087977 0.00000000000000 2.80040791087977 
2.80040791087977 2.80040791087977 0.00000000000000 

ATOMIC_POSITIONS angstrom
Si 0.00000000000000 0.00000000000000 0.00000000000000 
Si 1.40020395543988 1.40020395543988 1.40020395543988 
